NAME : portgen-36-46956
COMMENT : portgen N=36, seed=46956
TYPE : TSP
DIMENSION : 36
EDGE_WEIGHT_TYPE : EUC_2D
NODE_COORD_SECTION
1 388773 800391
2 395402 730033
3 17659 118690
4 785299 788714
5 480486 886044
6 530859 222510
7 211386 870166
8 486860 604668
9 627790 937979
10 237811 556989
11 664205 676296
12 129087 807393
13 779374 414276
14 710298 217488
15 20044 381676
16 141536 729378
17 804067 586297
18 917720 316739
19 736188 683461
20 802699 766552
21 378503 433201
22 376659 724712
23 531407 613975
24 165127 178575
25 427856 576007
26 82068 54096
27 533069 160114
28 441818 659394
29 996324 809105
30 812313 700920
31 382501 101838
32 986015 713933
33 507541 97657
34 845851 486674
35 338758 872885
36 439540 449215
